c --- [ banner ] -------------------------------------------------------------
c 
c CaDiCaL Radically Simplified CDCL SAT Solver
c Copyright (c) 2016-2021 A. Biere, M. Fleury, N. Froleyks
c 
c Version 1.5.2 ca9bff05c11bde5eae4912f9932871d1527e61d8
c g++ (GCC) 9.3.0 -Wall -Wextra -O3 -DNDEBUG
c Sun May 1 02:23:23 EDT 2022 Linux gra-login1 3.10.0-1160.59.1.el7.x86_64 x86_64
c 
c --- [ limit ] --------------------------------------------------------------
c 
c setting conflict limit to 200000 conflicts (due to '200000')
c 
c --- [ parsing input ] ------------------------------------------------------
c 
c reading DIMACS file from '12.cubes1470.adj'
c opening file to read '12.cubes1470.adj'
c found 'p cnf 5320 924210' header
c parsed 924210 clauses in 8.24 seconds process time
c closing file '12.cubes1470.adj'
c after reading 686668114 bytes 654.9 MB
c 
c --- [ options ] ------------------------------------------------------------
c 
c all options are set to their default value
c 
c --- [ solving ] ------------------------------------------------------------
c 
c time measured in process time since initialization
c 
c  seconds   reductions  redundant  irredundant
c          MB    restarts       trail      variables
c           level   conflicts       glue        remaining
c 
c *  8.24 688  0 0   0    0    0  0% 0 923580 4055 76%
c {  8.91 721  0 0   0    0    0  0% 0 923580 4055 76%
c i  9.53 734 97 0   0   22   20 45% 4 923580 4037 76%
c i 10.15 740 39 0   6  102   58 42% 5 923580 3918 74%
c i 10.51 741 40 0   9  158   81 39% 6 923580 3916 74%
c i 10.52 741 39 0  10  161   83 39% 6 923580 3900 73%
c - 12.71 702 26 1  47  303   73 39% 9 93261 3900 73%
c i 12.83 669 28 1  52  327   87 39% 10 93261 3899 73%
c i 13.09 669 35 1  65  377  134 41% 14 93261 3898 73%
c i 13.10 669 35 1  65  379  135 41% 14 93261 3893 73%
c i 13.11 669 35 1  66  381  136 41% 13 93261 3891 73%
c i 13.19 669 37 1  72  405  155 42% 15 93261 3886 73%
c i 13.24 669 38 1  76  420  167 42% 16 93261 3885 73%
c i 13.35 669 40 1  83  445  187 43% 16 93261 3884 73%
c i 13.37 669 40 1  85  455  194 43% 17 93261 3883 73%
c i 13.41 669 40 1  89  471  209 43% 17 93261 3882 73%
c i 13.41 669 41 1  90  475  210 43% 16 93261 3879 73%
c i 13.41 669 42 1  92  481  214 43% 16 93261 3877 73%
c i 13.45 669 43 1  94  496  228 43% 17 93261 3876 73%
c i 13.45 669 43 1  95  502  231 44% 17 93261 3875 73%
c 
c  seconds   reductions  redundant   irredundant
c          MB    restarts       trail      variables
c           level   conflicts       glue        remaining
c 
c i 13.52 669 43 1 107  560  280 45% 18 93261 3874 73%
c i 13.58 669 43 1 114  590  308 45% 19 93261 3873 73%
c i 13.61 669 43 1 119  607  323 45% 19 93261 3872 73%
c - 13.96 699 36 2 132  905  385 44% 17 93041 3872 73%
c i 14.01 699 35 2 132  954  397 44% 16 93041 3871 73%
c i 14.02 699 35 2 132  957  398 44% 16 93041 3870 73%
c i 14.08 699 36 2 139  995  430 44% 17 93041 3869 73%
c } 14.09 699 36 2 140 1003  437 44% 17 93041 3869 73%
c [ 14.09 699  0 2 140 1003  437  0% 0 93041 3869 73%
c O 14.10 699  1 2 140 1004  438 31% 1 93041 3869 73%
c i 14.10 699  0 2 140 1005  438 31% 0 93041 3763 71%
c i 14.10 699  1 2 140 1006  438 31% 0 93041 3745 70%
c i 14.19 699 36 2 140 1110  507 51% 29 93041 3744 70%
c i 14.21 699 40 2 140 1197  572 53% 34 93041 3743 70%
c i 14.23 699 41 2 140 1247  609 54% 35 93041 3742 70%
c i 14.23 699 41 2 140 1254  612 54% 35 93041 3741 70%
c i 14.25 699 42 2 140 1334  662 54% 36 93041 3740 70%
c i 14.28 699 42 2 140 1433  723 54% 36 93041 3739 70%
c i 14.31 699 42 2 140 1591  830 55% 36 93041 3738 70%
c i 14.34 699 42 2 140 1701  904 55% 36 93041 3737 70%
c 
c  seconds   reductions  redundant   irredundant
c          MB    restarts       trail      variables
c           level   conflicts       glue        remaining
c 
c - 14.46 696 41 3 140 1807  773 55% 36 91760 3737 70%
c i 14.53 696 41 3 140 1900  829 55% 36 91760 3736 70%
c i 14.57 696 40 3 141 2100  943 55% 35 91760 3735 70%
c i 14.62 696 39 3 141 2409 1166 55% 34 91760 3734 70%
c i 14.74 696 38 3 141 2971 1519 55% 33 91760 3733 70%
c ] 14.75 696 38 3 141 3005 1536 55% 33 91760 3733 70%
c { 14.75 696 36 3 141 3005 1536 44% 17 91760 3733 70%
c F 14.83 694 36 3 142 3006 1536  4% 17 91751 3733 70%
c - 14.85 695 36 4 142 3008 1102  4% 17 91751 3733 70%
c i 14.92 695 36 4 145 3061 1141 26% 17 91751 3732 70%
c i 14.92 695 36 4 145 3062 1141 26% 17 91751 3731 70%
c i 14.94 695 35 4 145 3086 1161 29% 17 91751 3730 70%
c i 15.07 695 38 4 154 3153 1221 30% 17 91751 3729 70%
c i 15.27 695 40 4 178 3247 1285 29% 18 91751 3728 70%
c i 15.31 695 40 4 186 3279 1308 29% 19 91751 3727 70%
c i 15.45 695 42 4 195 3320 1346 30% 19 91751 3726 70%
c i 15.56 695 42 4 206 3363 1386 29% 19 91751 3724 70%
c i 15.64 695 43 4 213 3394 1404 29% 20 91751 3723 70%
c i 15.74 695 43 4 221 3516 1450 27% 20 91751 3722 70%
c i 15.79 695 44 4 231 3547 1479 27% 20 91751 3721 70%
c 
c  seconds   reductions  redundant   irredundant
c          MB    restarts       trail      variables
c           level   conflicts       glue        remaining
c 
c i 16.23 695 47 4 277 3747 1656 28% 22 91751 3720 70%
c i 16.79 695 49 4 339 4059 1922 29% 24 91751 3719 70%
c i 17.13 695 50 4 370 4204 2046 30% 24 91751 3718 70%
c - 17.65 695 53 5 423 4509 1635 29% 25 91712 3718 70%
c d 18.09 695 51 5 475 5002 2069 31% 25 91690 3711 70%
c 2 18.12 695 51 5 475 5002 3628 31% 25 91599 3711 70%
c p 19.01 696 51 5 475 5002 8212 31% 25 91599 3677 69%
c d 19.10 696 51 5 475 5002 7928 31% 25 91500 3676 69%
c # 19.48 696 44 5 498 6007 8623 32% 24 91500 3676 69%
c - 19.67 696 43 6 498 6310 2316 33% 23 91500 3676 69%
c } 20.10 696 42 6 527 7005 2866 33% 23 91500 3676 69%
c [ 20.10 696 38 6 527 7005 2866 79% 33 91500 3676 69%
c - 20.63 696 33 7 528 8410 2512 60% 28 91500 3676 69%
c I 21.00 696 32 7 529 10010 3560 53% 27 91500 3676 69%
c - 21.58 696 37 8 530 10810 3009 50% 30 91500 3676 69%
c - 22.81 696 38 9 532 13511 3497 46% 30 91500 3676 69%
c 2 23.38 696 37 9 532 15002 6238 44% 30 91497 3676 69%
c p 23.91 696 37 9 532 15002 10884 44% 30 91497 3676 69%
c ] 23.95 696 37 9 532 15009 10888 44% 30 91497 3676 69%
c { 23.95 696 42 9 532 15009 10888 33% 23 91497 3676 69%
c 
c  seconds   reductions    redundant   irredundant
c          MB    restarts         trail      variables
c           level    conflicts        glue        remaining
c 
c B 23.98 696 42 9 534 15013 10892 33% 23 91497 3676 69%
c s 24.26 696 40 9 558 15663 11209 33% 23 89171 3676 69%
c v 25.01 696 40 9 558 15663 11209 33% 23 89148 3676 69%
c t 25.06 696 40 9 558 15663 11196 33% 23 89113 3676 69%
c e 25.20 696 40 9 558 15663 6281 33% 23 84177 956 18%
c s 25.28 696 40 9 558 15663 6281 33% 23 83829 956 18%
c - 25.89 696 38 10 597 16512 4035 60% 22 83829 956 18%
c - 27.02 696 34 11 696 19813 4186 61% 21 83829 956 18%
c W 27.38 696 32 11 698 21017 4990 61% 20 83829 956 18%
c - 28.04 696 30 12 720 23416 4767 61% 20 83829 956 18%
c - 29.96 696 30 13 971 27318 5323 61% 20 83829 956 18%
c F 30.23 696 29 13 986 28020 5908 61% 19 83829 956 18%
c 2 31.52 696 30 13 1236 30002 8076 61% 20 83829 956 18%
c p 32.20 696 30 13 1236 30002 9874 61% 20 83829 954 18%
c d 32.25 696 30 13 1236 30002 9791 61% 20 80560 953 18%
c } 32.67 696 30 13 1309 31012 10443 60% 20 80560 953 18%
c [ 32.67 696 37 13 1309 31012 10443 171% 30 80560 953 18%
c - 32.82 696 36 14 1309 31519 6041 165% 29 80560 953 18%
c - 33.78 696 31 15 1312 36020 5606 132% 25 80560 953 18%
c B 33.80 696 31 15 1312 36021 5607 132% 25 80560 953 18%
c 
c  seconds   reductions     redundant    irredundant
c          MB     restarts         trail       variables
c           level      conflicts        glue       remaining
c 
c - 34.70 696 31 16 1315 40820 6385 114% 25 80560 953 18%
c s 34.95 696 31 16 1315 41483 6844 112% 25 80134 953 18%
c v 35.76 696 31 16 1315 41483 6844 112% 25 80111 953 18%
c t 35.79 696 31 16 1315 41483 6837 112% 25 80109 953 18%
c e 35.91 696 31 16 1315 41483 6808 112% 25 79949 901 17%
c s 36.02 696 31 16 1315 41483 6808 112% 25 79761 901 17%
c W 37.15 696 30 16 1316 45026 9052 104% 25 79761 901 17%
c - 37.39 697 30 17 1316 45922 6652 102% 25 79761 901 17%
c p 38.39 697 29 17 1317 50003 11900 96% 24 79761 901 17%
c - 38.72 697 29 18 1317 51325 7346 94% 24 79761 901 17%
c O 39.34 697 29 18 1318 55030 10018 90% 24 79761 901 17%
c - 39.70 697 28 19 1320 57025 7929 88% 24 79761 901 17%
c ] 40.59 697 29 19 1324 63012 11864 83% 24 79761 901 17%
c { 40.59 697 30 19 1324 63012 11864 60% 20 79761 901 17%
c - 40.61 697 30 20 1325 63026 7826 60% 20 79761 901 17%
c B 41.59 697 29 20 1479 66032 9928 60% 20 79761 901 17%
c } 41.70 697 29 20 1482 66629 10362 60% 20 79761 901 17%
c 1 41.70 697 29 20 1482 66629 10362 60% 20 79761 901 17%
c 
c --- [ writing output ] -----------------------------------------------------
c 
c writing simplified CNF to DIMACS file 'simp/12.cubes1470.adj.simp1'
c * 41.70 697 29 20 1482 66629 10362 60% 20 79761 901 17%
c opening file to write 'simp/12.cubes1470.adj.simp1'
c writing 'p cnf 5320 79761' header
c closing file 'simp/12.cubes1470.adj.simp1'
c after writing 26130096 bytes 24.9 MB
c wrote 79761 clauses in 0.17 seconds process time
c 
c --- [ writing extension ] --------------------------------------------------
c 
c writing extension stack to 'simp/12.cubes1470.adj.ext1'
c opening file to write 'simp/12.cubes1470.adj.ext1'
c closing file 'simp/12.cubes1470.adj.ext1'
c after writing 161053 bytes 0.2 MB
c wrote 7355 witnesses in 0.00 seconds process time
c 
c --- [ result ] -------------------------------------------------------------
c 
s SATISFIABLE
c 
c --- [ run-time profiling ] -------------------------------------------------
c 
c process time taken by individual solving procedures
c (percentage relative to process time for solving)
c 
c        28.35   84.73% search
c        17.22   51.47% unstable
c        10.06   30.08% stable
c         8.24   24.64% parse
c         5.11   15.27% simplify
c         2.30    6.88% probe
c         1.61    4.80% vivify
c         0.67    2.00% lucky
c         0.49    1.48% elim
c         0.40    1.18% walk
c         0.37    1.09% subsume
c         0.07    0.20% ternary
c   =================================
c        33.46   79.91% solve
c 
c last line shows process time for solving
c (percentage relative to total process time)
c 
c --- [ statistics ] ---------------------------------------------------------
c 
c chronological:             11637        17.47 %  of conflicts
c conflicts:                 66629      1991.57    per second
c decisions:                151902      4540.43    per second
c eliminated:                 2772        52.11 %  of all variables
c fixed:                      1638        30.79 %  of all variables
c learned:                   65301        98.01 %  per conflict
c learned_lits:           11209009       100.00 %  learned literals
c minimized:                     0         0.00 %  learned literals
c shrunken:                6202646        55.34 %  learned literals
c minishrunken:            1052695         9.39 %  learned literals
c propagations:            6697460         0.20 M  per second
c reduced:                   34343        51.54 %  per conflict
c rephased:                     11      6057.18    interval
c restarts:                   1482        44.96    interval
c stabilizing:                   3        63.04 %  of conflicts
c substituted:                   9         0.17 %  of all variables
c subsumed:                  23905         1.18 %  of all clauses
c strengthened:              10990         0.54 %  of all clauses
c ternary:                    4521         0.55 %  of resolved
c vivified:                     81         0.00 %  of all clauses
c walked:                        2     33314.50    interval
c weakened:                   5717         2.97    average size
c 
c seconds are measured in process time for solving
c 
c --- [ resources ] ----------------------------------------------------------
c 
c total process time since initialization:        41.87    seconds
c total real time since initialization:           42.03    seconds
c maximum resident set size of process:          741.09    MB
c 
c --- [ shutting down ] ------------------------------------------------------
c 
c exit 10
WARNING! DIMACS header mismatch: wrong number of variables.
============================[ Problem Statistics ]=============================
|                                                                             |
|  Number of variables:          3406                                         |
|  Number of clauses:           79765                                         |
|  Parse time:                   0.39 s                                       |
|  Simplification time:          0.01 s                                       |
|                                                                             |
============================[ Search Statistics ]====================================================
| Conflicts |          ORIGINAL         |          LEARNT          | Num Sols |      SUBGRAPHS      |
|           |    Vars  Clauses Literals |    Limit  Clauses Lit/Cl |          | Canonical Noncanon. |
=====================================================================================================
|       101 |    3316    79766  5851930 |     2000      101     86 |        0 |        21         1 |
|       322 |    3316    79837  5853124 |     2000      322     64 |        0 |        47        72 |
|       619 |    3316    79909  5854540 |     2000      619     64 |        0 |        83       144 |
|       990 |    3316    79943  5854914 |     2000      990     69 |        0 |        85       178 |
|      1530 |    3316    79977  5855861 |     2000     1530     76 |        0 |       112       212 |
|      2319 |    3316    80007  5856615 |     3604     1323     59 |        0 |       157       242 |
|      3504 |    3316    80053  5857584 |     3604     2508     71 |        0 |       189       288 |
|      5246 |    3316    80087  5858397 |     5005     2451     59 |        0 |       228       322 |
|      7837 |    3316    80116  5858946 |     6305     2542     47 |        0 |       276       351 |
|     11856 |    3316    80291  5862185 |     7554     3410     47 |        0 |       356       526 |
|     18094 |    3316    80763  5871453 |     8779     5873     58 |        0 |       530       998 |
|     27091 |    3316    81111  5878356 |    11203     5494     42 |        0 |       671      1346 |
|     40344 |    3316    81390  5883028 |    13605     6949     44 |        0 |       818      1625 |
|     60615 |    3316    82200  5897561 |    16006    13021     64 |        0 |      1111      2435 |
|     90308 |    3316    82701  5905649 |    19609    16917     67 |        0 |      1348      2936 |
|    134793 |    3316    83397  5916715 |    24411    18604     63 |        0 |      1599      3632 |
|    201818 |    3316    84738  5935121 |    30406    18624     59 |        0 |      1961      4973 |
|    302387 |    3316    86781  5968017 |    37615    19002     44 |        0 |      2410      7016 |
|    452917 |    3316    89522  6013052 |    46019    25336     46 |        0 |      3177      9757 |
|    680159 |    3316    95081  6094925 |    55614    51773     62 |        0 |      4295     15316 |
|   1019063 |    3316   101460  6216548 |    68818    51881     60 |        0 |      5685     21695 |
|   1526035 |    3316   109644  6352925 |    84417    64852     59 |        0 |      7506     29879 |
|   2294553 |    3316   129980  6632645 |   103615    86168     61 |        0 |     11530     50215 |
|   3441986 |    3300    99594  6169425 |   112235    68221     69 |        0 |     16080     75374 |
=====================================================================================================
Number of solutions   : 0
Canonical subgraphs   : 17877          (33 /sec)
          order  3    : 1              (200000 /sec)
          order  4    : 1              (1000000 /sec)
          order  5    : 1              (200000 /sec)
          order  6    : 1              (52632 /sec)
          order  7    : 1              (8065 /sec)
          order  8    : 2              (1350 /sec)
          order  9    : 9              (414 /sec)
          order 10    : 36             (124 /sec)
          order 11    : 214            (47 /sec)
          order 12    : 1229           (29 /sec)
          order 13    : 4463           (34 /sec)
          order 14    : 10056          (34 /sec)
          order 15    : 1835           (28 /sec)
          order 16    : 20             (23 /sec)
          order 17    : 8              (17 /sec)
          order 18    : 0              (-nan /sec)
          order 19    : 0              (-nan /sec)
          order 20    : 0              (-nan /sec)
          order 21    : 0              (-nan /sec)
Noncanonical subgraphs: 84095          (1690 /sec)
          order  3    : 0              (-nan /sec)
          order  4    : 0              (-nan /sec)
          order  5    : 0              (-nan /sec)
          order  6    : 0              (-nan /sec)
          order  7    : 0              (-nan /sec)
          order  8    : 0              (-nan /sec)
          order  9    : 0              (-nan /sec)
          order 10    : 0              (-nan /sec)
          order 11    : 0              (-nan /sec)
          order 12    : 0              (-nan /sec)
          order 13    : 22543          (2963 /sec)
          order 14    : 59231          (1580 /sec)
          order 15    : 1764           (1210 /sec)
          order 16    : 552            (174 /sec)
          order 17    : 5              (103 /sec)
          order 18    : 0              (-nan /sec)
          order 19    : 0              (-nan /sec)
          order 20    : 0              (-nan /sec)
Canonicity checking   : 544.052 s
Noncanonicity checking: 49.7727 s
Total canonicity time : 593.825 s
database reductions   : 111
restarts              : 6873
conflicts             : 3891392        (2371 /sec)
decisions             : 4940629        (0.00 % random) (3010 /sec)
propagations          : 192782241      (117446 /sec)
conflict literals     : 373113871      (54.14 % deleted)
actual reward         : 0.244106
Memory used           : 162.00 MB
CPU time              : 1641.46 s

UNSATISFIABLE
